100 8
685 201
164 365
98 547
158 256
219 462
672 645
464 116
755 723
691 659
781 633
796 403
332 105
808 691
590 377
564 58
458 219
777 266
295 128
671 504
554 756
419 449
424 118
70 462
561 878
236 249
778 368
889 247
197 373
420 457
560 764
265 745
80 414
748 695
321 837
337 109
739 573
756 756
294 190
239 315
81 436
196 225
603 785
314 144
396 718
521 453
733 661
718 438
409 187
810 330
753 151
319 479
127 548
656 583
338 102
304 718
311 587
225 267
415 142
304 596
278 205
482 747
701 319
412 53
741 722
784 232
469 487
529 795
264 531
391 626
332 615
303 218
411 144
545 726
420 176
238 214
347 34
83 541
423 183
456 840
455 177
519 258
468 195
778 662
181 141
434 183
781 755
847 431
844 289
412 853
797 369
334 280
281 73
876 445
819 583
523 912
701 290
486 446
371 814
786 740
797 358
